% demand
num_movements = 23;
loading_factor = [1100, 1050, 1250, 1350, 1150, 1350, 1500, 1800, 950, 2000, 850, 800, 1050, 1350, 1300, 1150, 1200, 1800, 950, 1100, 1850, 1450, 1650];
pickup_time = [0, 0, 0, 1, 1, 1, 2, 3, 4, 4, 4, 4, 4, 4, 6, 6, 7, 8, 9, 9, 9, 9, 9];
delivery_time = [1, 3, 1, 3, 3, 3, 3, 4, 5, 9, 6, 6, 6, 8, 9, 8, 8, 9, 11, 11, 11, 11, 11];

% transporter definition
total_capacity = 7000;
num_decks = 3;
capacity = [3000, 1000, 3000];

% ways out of decks
num_ways_out = 1;
paths_out = array3d(decks, ways_out, decks, [
% ways out of deck d1
2, 3, 0, 

% ways out of deck d2
3, 0, 0, 

% ways out of deck d3
0, 0, 0,	

]);

